NAME : n150w160.001.959.tour
COMMENT : Length = 959
COMMENT : Found by LKH [Keld Helsgaun] Tue Nov  7 19:48:08 2017
TYPE : TOUR
DIMENSION : 151
TOUR_SECTION
1
57
123
37
130
110
115
129
83
11
68
80
70
40
116
32
125
56
82
7
29
112
46
105
108
34
91
20
140
69
44
81
146
43
50
17
86
122
16
84
22
5
104
143
9
139
147
149
18
131
47
2
58
21
99
51
78
111
102
73
62
76
13
90
137
49
30
65
133
118
15
89
124
119
92
95
26
60
3
12
45
106
148
19
31
103
100
107
98
134
101
8
27
136
25
14
97
72
113
39
128
120
67
53
88
74
54
33
79
48
55
117
35
6
75
71
52
87
94
138
66
142
59
41
4
77
96
145
121
38
135
85
141
93
126
23
150
42
127
24
28
64
109
63
10
114
36
132
151
61
144
-1
EOF
